Route #1: 75 93
Route #2: 66 84 90 68
Route #3: 79 11 85 30
Route #4: 39 10 18
Route #5: 74 13 4
Route #6: 5 12 58
Route #7: 59 60 82
Route #8: 83 51 81
Route #9: 32 33 53 73 95 24
Route #10: 44 67 88 40
Route #11: 14 49 6 37 87
Route #12: 63 77 3
Route #13: 38 47 26 48 96 64 34
Route #14: 1 70 54
Route #15: 35 46 31
Route #16: 89 98 99 62 71
Route #17: 20 41 22 15
Route #18: 21 56 94 80
Route #19: 50 91 52
Route #20: 27 97 19
Route #21: 8 17
Route #22: 69 16 55 76
Route #23: 23 61 100
Route #24: 28 42 78 65 25
Route #25: 86 9 92
Route #26: 57 72 36 29 43 45 2 7
Cost 27591.0000
Time 16.0006